(declare-const X String)
; ^(\+27|27|0)[0-9]{2}( |-)?[0-9]{3}( |-)?[0-9]{4}( |-)?(x[0-9]+)?(ext[0-9]+)?
(assert (str.in.re X (re.++ (re.union (str.to.re "+27") (str.to.re "27") (str.to.re "0")) ((_ re.loop 2 2) (re.range "0" "9")) (re.opt (re.union (str.to.re " ") (str.to.re "-"))) ((_ re.loop 3 3) (re.range "0" "9")) (re.opt (re.union (str.to.re " ") (str.to.re "-"))) ((_ re.loop 4 4) (re.range "0" "9")) (re.opt (re.union (str.to.re " ") (str.to.re "-"))) (re.opt (re.++ (str.to.re "x") (re.+ (re.range "0" "9")))) (re.opt (re.++ (str.to.re "ext") (re.+ (re.range "0" "9")))) (str.to.re "\x0a"))))
; ^([\w\.\-]+)@([\w\-]+)((\.(\w){2,3})+)$
(assert (str.in.re X (re.++ (re.+ (re.union (str.to.re ".") (str.to.re "-") (re.range "0" "9") (re.range "A" "Z") (re.range "a" "z") (str.to.re "_"))) (str.to.re "@") (re.+ (re.union (str.to.re "-") (re.range "0" "9") (re.range "A" "Z") (re.range "a" "z") (str.to.re "_"))) (re.+ (re.++ (str.to.re ".") ((_ re.loop 2 3) (re.union (re.range "0" "9") (re.range "A" "Z") (re.range "a" "z") (str.to.re "_"))))) (str.to.re "\x0a"))))
; (((ht|f)tp(s?):\/\/)|(([\w]{1,})\.[^ \[\]\(\)\n\r\t]+)|(([012]?[0-9]{1,2}\.){3}[012]?[0-9]{1,2})\/)([^ \[\]\(\),;"'<>\n\r\t]+)([^\. \[\]\(\),;"'<>\n\r\t])|(([012]?[0-9]{1,2}\.){3}[012]?[0-9]{1,2})
(assert (not (str.in.re X (re.union (re.++ (re.union (re.++ (re.union (str.to.re "ht") (str.to.re "f")) (str.to.re "tp") (re.opt (str.to.re "s")) (str.to.re "://")) (re.++ (re.+ (re.union (re.range "0" "9") (re.range "A" "Z") (re.range "a" "z") (str.to.re "_"))) (str.to.re ".") (re.+ (re.union (str.to.re " ") (str.to.re "[") (str.to.re "]") (str.to.re "(") (str.to.re ")") (str.to.re "\x0a") (str.to.re "\x0d") (str.to.re "\x09")))) (re.++ (str.to.re "/") ((_ re.loop 3 3) (re.++ (re.opt (re.union (str.to.re "0") (str.to.re "1") (str.to.re "2"))) ((_ re.loop 1 2) (re.range "0" "9")) (str.to.re "."))) (re.opt (re.union (str.to.re "0") (str.to.re "1") (str.to.re "2"))) ((_ re.loop 1 2) (re.range "0" "9")))) (re.+ (re.union (str.to.re " ") (str.to.re "[") (str.to.re "]") (str.to.re "(") (str.to.re ")") (str.to.re ",") (str.to.re ";") (str.to.re "\x22") (str.to.re "'") (str.to.re "<") (str.to.re ">") (str.to.re "\x0a") (str.to.re "\x0d") (str.to.re "\x09"))) (re.union (str.to.re ".") (str.to.re " ") (str.to.re "[") (str.to.re "]") (str.to.re "(") (str.to.re ")") (str.to.re ",") (str.to.re ";") (str.to.re "\x22") (str.to.re "'") (str.to.re "<") (str.to.re ">") (str.to.re "\x0a") (str.to.re "\x0d") (str.to.re "\x09"))) (re.++ (str.to.re "\x0a") ((_ re.loop 3 3) (re.++ (re.opt (re.union (str.to.re "0") (str.to.re "1") (str.to.re "2"))) ((_ re.loop 1 2) (re.range "0" "9")) (str.to.re "."))) (re.opt (re.union (str.to.re "0") (str.to.re "1") (str.to.re "2"))) ((_ re.loop 1 2) (re.range "0" "9")))))))
(check-sat)
